p cnf 658
-10 -206
-11 -209
-12 -212
-13 -215
-14 -218
-15 -221
-16 -224
-17 -227
-18 -230
-19 231
-20 232
-21 233
-22 234
-23 235
-24 236
-25 -11
-25 -12
11 12 25
-26 -13
-26 -14
13 14 26
-27 -15
-27 -16
15 16 27
-28 -17
-28 -18
17 18 28
-29 -19
-29 -20
19 20 29
-30 -21
-30 -22
21 22 30
-31 -23
-31 -24
23 24 31
-32 25
-32 26
-25 -26 32
-33 27
-33 28
-27 -28 33
-34 29
-34 30
-29 -30 34
-35 32
-35 33
-32 -33 35
-36 31
-36 34
-31 -34 36
-37 35
-37 36
-35 -36 37
-38 -10
-38 11
10 -11 38
-39 10
-39 -11
-10 11 39
-40 -38
-40 -39
38 39 40
-41 10
-41 11
-10 -11 41
-42 -10
-42 -40
10 40 42
-43 10
-43 40
-10 -40 43
-44 -42
-44 -43
42 43 44
-45 10
-45 -40
-10 40 45
-46 -41
-46 -45
41 45 46
-47 -11
-47 12
11 -12 47
-48 11
-48 -12
-11 12 48
-49 -47
-49 -48
47 48 49
-50 11
-50 12
-11 -12 50
-51 46
-51 -49
-46 49 51
-52 -46
-52 49
46 -49 52
-53 -51
-53 -52
51 52 53
-54 -46
-54 -49
46 49 54
-55 -50
-55 -54
50 54 55
-56 -12
-56 13
12 -13 56
-57 12
-57 -13
-12 13 57
-58 -56
-58 -57
56 57 58
-59 12
-59 13
-12 -13 59
-60 55
-60 -58
-55 58 60
-61 -55
-61 58
55 -58 61
-62 -60
-62 -61
60 61 62
-63 -55
-63 -58
55 58 63
-64 -59
-64 -63
59 63 64
-65 -13
-65 14
13 -14 65
-66 13
-66 -14
-13 14 66
-67 -65
-67 -66
65 66 67
-68 13
-68 14
-13 -14 68
-69 64
-69 -67
-64 67 69
-70 -64
-70 67
64 -67 70
-71 -69
-71 -70
69 70 71
-72 -64
-72 -67
64 67 72
-73 -68
-73 -72
68 72 73
-74 -14
-74 15
14 -15 74
-75 14
-75 -15
-14 15 75
-76 -74
-76 -75
74 75 76
-77 14
-77 15
-14 -15 77
-78 73
-78 -76
-73 76 78
-79 -73
-79 76
73 -76 79
-80 -78
-80 -79
78 79 80
-81 -73
-81 -76
73 76 81
-82 -77
-82 -81
77 81 82
-83 -15
-83 16
15 -16 83
-84 15
-84 -16
-15 16 84
-85 -83
-85 -84
83 84 85
-86 15
-86 16
-15 -16 86
-87 82
-87 -85
-82 85 87
-88 -82
-88 85
82 -85 88
-89 -87
-89 -88
87 88 89
-90 -82
-90 -85
82 85 90
-91 -86
-91 -90
86 90 91
-92 -16
-92 17
16 -17 92
-93 16
-93 -17
-16 17 93
-94 -92
-94 -93
92 93 94
-95 16
-95 17
-16 -17 95
-96 91
-96 -94
-91 94 96
-97 -91
-97 94
91 -94 97
-98 -96
-98 -97
96 97 98
-99 -91
-99 -94
91 94 99
-100 -95
-100 -99
95 99 100
-101 -17
-101 18
17 -18 101
-102 17
-102 -18
-17 18 102
-103 -101
-103 -102
101 102 103
-104 17
-104 18
-17 -18 104
-105 100
-105 -103
-100 103 105
-106 -100
-106 103
100 -103 106
-107 -105
-107 -106
105 106 107
-108 -100
-108 -103
100 103 108
-109 -104
-109 -108
104 108 109
-110 -18
-110 19
18 -19 110
-111 18
-111 -19
-18 19 111
-112 -110
-112 -111
110 111 112
-113 18
-113 19
-18 -19 113
-114 109
-114 -112
-109 112 114
-115 -109
-115 112
109 -112 115
-116 -114
-116 -115
114 115 116
-117 -109
-117 -112
109 112 117
-118 -113
-118 -117
113 117 118
-119 -19
-119 20
19 -20 119
-120 19
-120 -20
-19 20 120
-121 -119
-121 -120
119 120 121
-122 19
-122 20
-19 -20 122
-123 118
-123 -121
-118 121 123
-124 -118
-124 121
118 -121 124
-125 -123
-125 -124
123 124 125
-126 -118
-126 -121
118 121 126
-127 -122
-127 -126
122 126 127
-128 -20
-128 21
20 -21 128
-129 20
-129 -21
-20 21 129
-130 -128
-130 -129
128 129 130
-131 20
-131 21
-20 -21 131
-132 127
-132 -130
-127 130 132
-133 -127
-133 130
127 -130 133
-134 -132
-134 -133
132 133 134
-135 -127
-135 -130
127 130 135
-136 -131
-136 -135
131 135 136
-137 -21
-137 22
21 -22 137
-138 21
-138 -22
-21 22 138
-139 -137
-139 -138
137 138 139
-140 21
-140 22
-21 -22 140
-141 136
-141 -139
-136 139 141
-142 -136
-142 139
136 -139 142
-143 -141
-143 -142
141 142 143
-144 -136
-144 -139
136 139 144
-145 -140
-145 -144
140 144 145
-146 -22
-146 23
22 -23 146
-147 22
-147 -23
-22 23 147
-148 -146
-148 -147
146 147 148
-149 22
-149 23
-22 -23 149
-150 145
-150 -148
-145 148 150
-151 -145
-151 148
145 -148 151
-152 -150
-152 -151
150 151 152
-153 -145
-153 -148
145 148 153
-154 -149
-154 -153
149 153 154
-155 -23
-155 24
23 -24 155
-156 23
-156 -24
-23 24 156
-157 -155
-157 -156
155 156 157
-158 23
-158 24
-23 -24 158
-159 154
-159 -157
-154 157 159
-160 -154
-160 157
154 -157 160
-161 -159
-161 -160
159 160 161
-162 -154
-162 -157
154 157 162
-163 -158
-163 -162
158 162 163
-164 10
-164 -44
-10 44 164
-165 -10
-165 12
10 -12 165
-166 -164
-166 -165
164 165 166
-167 10
-167 -53
-10 53 167
-168 -10
-168 13
10 -13 168
-169 -167
-169 -168
167 168 169
-170 10
-170 -62
-10 62 170
-171 -10
-171 14
10 -14 171
-172 -170
-172 -171
170 171 172
-173 10
-173 -71
-10 71 173
-174 -10
-174 15
10 -15 174
-175 -173
-175 -174
173 174 175
-176 10
-176 -80
-10 80 176
-177 -10
-177 16
10 -16 177
-178 -176
-178 -177
176 177 178
-179 10
-179 -89
-10 89 179
-180 -10
-180 17
10 -17 180
-181 -179
-181 -180
179 180 181
-182 10
-182 -98
-10 98 182
-183 -10
-183 18
10 -18 183
-184 -182
-184 -183
182 183 184
-185 10
-185 -107
-10 107 185
-186 -10
-186 19
10 -19 186
-187 -185
-187 -186
185 186 187
-188 10
-188 -116
-10 116 188
-189 -10
-189 20
10 -20 189
-190 -188
-190 -189
188 189 190
-191 10
-191 -125
-10 125 191
-192 -10
-192 21
10 -21 192
-193 -191
-193 -192
191 192 193
-194 10
-194 -134
-10 134 194
-195 -10
-195 22
10 -22 195
-196 -194
-196 -195
194 195 196
-197 10
-197 -143
-10 143 197
-198 -10
-198 23
10 -23 198
-199 -197
-199 -198
197 198 199
-200 10
-200 -152
-10 152 200
-201 -10
-201 24
10 -24 201
-202 -200
-202 -201
200 201 202
-203 10
-203 -161
-10 161 203
-204 1
-204 37
-1 -37 204
-205 -37
-205 38
37 -38 205
-206 -204
-206 -205
204 205 206
-207 2
-207 37
-2 -37 207
-208 -37
-208 -166
37 166 208
-209 -207
-209 -208
207 208 209
-210 3
-210 37
-3 -37 210
-211 -37
-211 -169
37 169 211
-212 -210
-212 -211
210 211 212
-213 4
-213 37
-4 -37 213
-214 -37
-214 -172
37 172 214
-215 -213
-215 -214
213 214 215
-216 5
-216 37
-5 -37 216
-217 -37
-217 -175
37 175 217
-218 -216
-218 -217
216 217 218
-219 6
-219 37
-6 -37 219
-220 -37
-220 -178
37 178 220
-221 -219
-221 -220
219 220 221
-222 7
-222 37
-7 -37 222
-223 -37
-223 -181
37 181 223
-224 -222
-224 -223
222 223 224
-225 8
-225 37
-8 -37 225
-226 -37
-226 -184
37 184 226
-227 -225
-227 -226
225 226 227
-228 9
-228 37
-9 -37 228
-229 -37
-229 -187
37 187 229
-230 -228
-230 -229
228 229 230
-231 -37
-231 -190
37 190 231
-232 -37
-232 -193
37 193 232
-233 -37
-233 -196
37 196 233
-234 -37
-234 -199
37 199 234
-235 -37
-235 -202
37 202 235
-236 -37
-236 203
37 -203 236
-237 -24
-237 163
24 -163 237
-238 10
-238 -237
-10 237 238
238
